30 5
100 34 22 26 38 63 56 74 47 57 43 79 19 91 31 88 10 19 99 61 29 74 92 78 73 47 38 100 55 50
53 19 55 98 40 22 13 77 48 57 39 37 89 78 18 55 70 53 88 89 29 71 27 65 75 90 89 91 53 90
73 58 37 62 85 18 18 36 90 38 26 38 71 76 96 17 78 17 10 59 72 72 99 85 69 70 26 76 63 84
25 44 91 86 52 82 74 15 42 49 61 57 97 75 38 76 82 34 73 68 68 15 62 45 65 58 20 76 49 88
32 69 79 33 98 97 19 37 79 19 87 32 63 47 86 55 91 88 33 15 40 52 82 10 36 62 72 38 57 56
